c defined variables: 6 15 23 28 32 41 45 54 58 66 71 75 83 87 92 96 100 109 113 122 126 130 138 143 147 151 160 164 168 177 181 190 194 203 214 221 228 246 257 261 268 272 279 286 290 294 298 302 309 313 320 327 331 345 352 356 360 364 374 378 388 392 393 394 398 402 409 413 420 427 435 447 448 451 452 455 456 457 458 461 462 463 464 467 468 469 470 473 474 475 476 479 481 482 483 484 487 488 489 490 491 492 495 496 497 498 499 500 503 504 505 506 507 508 511 512 513 514 515 516 521 522 523 524 527 528 529 530 531 532 535 536 537 538 539 540 543 544 545 546 547 548 549 550 553 554 555 556 557 558 559 560 565 566 567 568 569 574 575 576 577 578 581 582 583 584 585 586 587 588 591 592 593 594 595 596 597 598 601 602 603 604 605 606 607 608 612 613 614 616 617 618 619 622 623 624 625 626 627 628 629 630 631 635 636 637 638 639 642 643 644 645 646 647 648 649 650 651 654 655 656 658 659 660 661 662 663 666 667 668 669 670 671 672 673 674 675 676 677 682 683 684 685 686 687 688 689 690 695 696 697 698 699 700 701 702 703 704 705 710 711 712 713 715 717 718 719 720 721 722 723 724 727 
p cnf 2320 2682
a 441 401 397 367 323 316 326 330 334 337 344 341 351 348 416 430 260 253 249 245 74 78 65 69 52 61 48 57 39 44 121 134 370 381 359 264 355 363 53 62 70 79 91 104 108 117 426 271 377 419 373 438 405 267 278 275 207 202 408 412 185 176 198 189 155 142 172 159 26 35 13 18 22 31 1 4 9 434 716 256 312 319 384 282 289 285 301 297 293 305 308 206 201 193 184 197 188 171 158 180 175 40 49 5 10 2 27 36 14 19 217 220 210 213 237 231 224 227 234 242 112 107 103 90 95 99 82 86 125 116 387 433 423 391 141 150 146 154 120 129 133 137 167 163 0
e 3 7 8 11 12 16 17 20 21 24 25 29 30 33 34 37 38 42 43 46 47 50 51 55 56 59 60 63 64 67 68 72 73 76 77 80 81 84 85 88 89 93 94 97 98 101 102 105 106 110 111 114 115 118 119 123 124 127 128 131 132 135 136 139 140 144 145 148 149 152 153 156 157 161 162 165 166 169 170 173 174 178 179 182 183 186 187 191 192 195 196 199 200 204 205 208 209 211 212 215 216 218 219 222 223 225 226 229 230 232 233 235 236 239 240 241 243 244 247 248 250 251 252 254 255 258 259 262 263 265 266 269 270 273 274 276 277 280 281 283 284 287 288 291 292 295 296 299 300 303 304 306 307 310 311 314 315 317 318 321 322 324 325 328 329 332 333 335 336 339 340 342 343 346 347 349 350 353 354 357 358 361 362 365 366 368 369 371 372 375 376 379 380 382 383 385 386 389 390 395 396 399 400 403 404 406 407 410 411 414 415 417 418 421 422 424 425 428 429 431 432 436 437 439 440 442 443 444 445 446 449 450 453 454 459 460 465 466 471 472 477 478 480 485 486 493 494 501 502 509 510 517 518 520 525 526 533 534 541 542 551 552 561 562 564 570 571 573 579 580 589 590 599 600 609 610 615 620 621 632 633 640 641 652 653 657 664 665 678 679 681 691 692 694 706 707 709 714 725 726 6 15 23 28 32 41 45 54 58 66 71 75 83 87 92 96 100 109 113 122 126 130 138 143 147 151 160 164 168 177 181 190 194 203 214 221 228 246 257 261 268 272 279 286 290 294 298 302 309 313 320 327 331 345 352 356 360 364 374 378 388 392 393 394 398 402 409 413 420 427 435 447 448 451 452 455 456 457 458 461 462 463 464 467 468 469 470 473 474 475 476 479 481 482 483 484 487 488 489 490 491 492 495 496 497 498 499 500 503 504 505 506 507 508 511 512 513 514 515 516 521 522 523 524 527 528 529 530 531 532 535 536 537 538 539 540 543 544 545 546 547 548 549 550 553 554 555 556 557 558 559 560 565 566 567 568 569 574 575 576 577 578 581 582 583 584 585 586 587 588 591 592 593 594 595 596 597 598 601 602 603 604 605 606 607 608 612 613 614 616 617 618 619 622 623 624 625 626 627 628 629 630 631 635 636 637 638 639 642 643 644 645 646 647 648 649 650 651 654 655 656 658 659 660 661 662 663 666 667 668 669 670 671 672 673 674 675 676 677 682 683 684 685 686 687 688 689 690 695 696 697 698 699 700 701 702 703 704 705 710 711 712 713 715 717 718 719 720 721 722 723 724 727 2048 2049 2050 2051 2052 2053 2054 2055 2056 2057 2058 2059 2060 2061 2062 2063 2064 2065 2066 2067 2068 2069 2070 2071 2072 2073 2074 2075 2076 2077 2078 2079 2080 2081 2082 2083 2084 2085 2086 2087 2088 2089 2090 2091 2092 2093 2094 2095 2096 2097 2098 2099 2100 2101 2102 2103 2104 2105 2106 2107 2108 2109 2110 2111 2112 2113 2114 2115 2116 2117 2118 2119 2120 2121 2122 2123 2124 2125 2126 2127 2128 2129 2130 2131 2132 2133 2134 2135 2136 2137 2138 2139 2140 2141 2142 2143 2144 2145 2146 2147 2148 2149 2150 2151 2152 2153 2154 2155 2156 2157 2158 2159 2160 2161 2162 2163 2164 2165 2166 2167 2168 2169 2170 2171 2172 2173 2174 2175 2176 2177 2178 2179 2180 2181 2182 2183 2184 2185 2186 2187 2188 2189 2190 2191 2192 2193 2194 2195 2196 2197 2198 2199 2200 2201 2202 2203 2204 2205 2206 2207 2208 2209 2210 2211 2212 2213 2214 2215 2216 2217 2218 2219 2220 2221 2222 2223 2224 2225 2226 2227 2228 2229 2230 2231 2232 2233 2234 2235 2236 2237 2238 2239 2240 2241 2242 2243 2244 2245 2246 2247 2248 2249 2250 2251 2252 2253 2254 2255 2256 2257 2258 2259 2260 2261 2262 2263 2264 2265 2266 2267 2268 2269 2270 2271 2272 2273 2274 2275 2276 2277 2278 2279 2280 2281 2282 2283 2284 2285 2286 2287 2288 2289 2290 2291 2292 2293 2294 2295 2296 2297 2298 2299 2300 2301 2302 2303 2304 2305 2306 2307 2308 2309 2310 2311 2312 2313 2314 2315 2316 2317 2318 2319 2320 0
d 572 337 341 0
d 693 433 438 0
d 680 426 423 0
d 238 234 231 0
d 563 323 319 0
d 519 79 275 0
d 338 134 334 0
d 708 716 441 0
d 634 397 391 0
d 611 370 381 0
2049 -6 0
-2049 6 0
2050 -15 0
-2050 15 0
2051 -23 0
-2051 23 0
2052 -28 0
-2052 28 0
2053 -32 0
-2053 32 0
2054 -41 0
-2054 41 0
2055 -45 0
-2055 45 0
2056 -54 0
-2056 54 0
2057 -58 0
-2057 58 0
2058 -66 0
-2058 66 0
2059 -71 0
-2059 71 0
2060 -75 0
-2060 75 0
2061 -83 0
-2061 83 0
2062 -87 0
-2062 87 0
2063 -92 0
-2063 92 0
2064 -96 0
-2064 96 0
2065 -100 0
-2065 100 0
2066 -109 0
-2066 109 0
2067 -113 0
-2067 113 0
2068 -122 0
-2068 122 0
2069 -126 0
-2069 126 0
2070 -130 0
-2070 130 0
2071 -138 0
-2071 138 0
2072 -143 0
-2072 143 0
2073 -147 0
-2073 147 0
2074 -151 0
-2074 151 0
2075 -160 0
-2075 160 0
2076 -164 0
-2076 164 0
2077 -168 0
-2077 168 0
2078 -177 0
-2078 177 0
2079 -181 0
-2079 181 0
2080 -190 0
-2080 190 0
2081 -194 0
-2081 194 0
2082 -203 0
-2082 203 0
2083 -214 0
-2083 214 0
2084 -221 0
-2084 221 0
2085 -228 0
-2085 228 0
2086 -246 0
-2086 246 0
2087 -257 0
-2087 257 0
2088 -261 0
-2088 261 0
2089 -268 0
-2089 268 0
2090 -272 0
-2090 272 0
2091 -279 0
-2091 279 0
2092 -286 0
-2092 286 0
2093 -290 0
-2093 290 0
2094 -294 0
-2094 294 0
2095 -298 0
-2095 298 0
2096 -302 0
-2096 302 0
2097 -309 0
-2097 309 0
2098 -313 0
-2098 313 0
2099 -320 0
-2099 320 0
2100 -327 0
-2100 327 0
2101 -331 0
-2101 331 0
2102 -345 0
-2102 345 0
2103 -352 0
-2103 352 0
2104 -356 0
-2104 356 0
2105 -360 0
-2105 360 0
2106 -364 0
-2106 364 0
2107 -374 0
-2107 374 0
2108 -378 0
-2108 378 0
2109 -388 0
-2109 388 0
2110 -392 0
-2110 392 0
2111 -393 0
-2111 393 0
2112 -394 0
-2112 394 0
2113 -398 0
-2113 398 0
2114 -402 0
-2114 402 0
2115 -409 0
-2115 409 0
2116 -413 0
-2116 413 0
2117 -420 0
-2117 420 0
2118 -427 0
-2118 427 0
2119 -435 0
-2119 435 0
2120 -447 0
-2120 447 0
2121 -448 0
-2121 448 0
2122 -451 0
-2122 451 0
2123 -452 0
-2123 452 0
2124 -455 0
-2124 455 0
2125 -456 0
-2125 456 0
2126 -457 0
-2126 457 0
2127 -458 0
-2127 458 0
2128 -461 0
-2128 461 0
2129 -462 0
-2129 462 0
2130 -463 0
-2130 463 0
2131 -464 0
-2131 464 0
2132 -467 0
-2132 467 0
2133 -468 0
-2133 468 0
2134 -469 0
-2134 469 0
2135 -470 0
-2135 470 0
2136 -473 0
-2136 473 0
2137 -474 0
-2137 474 0
2138 -475 0
-2138 475 0
2139 -476 0
-2139 476 0
2140 -479 0
-2140 479 0
2141 -481 0
-2141 481 0
2142 -482 0
-2142 482 0
2143 -483 0
-2143 483 0
2144 -484 0
-2144 484 0
2145 -487 0
-2145 487 0
2146 -488 0
-2146 488 0
2147 -489 0
-2147 489 0
2148 -490 0
-2148 490 0
2149 -491 0
-2149 491 0
2150 -492 0
-2150 492 0
2151 -495 0
-2151 495 0
2152 -496 0
-2152 496 0
2153 -497 0
-2153 497 0
2154 -498 0
-2154 498 0
2155 -499 0
-2155 499 0
2156 -500 0
-2156 500 0
2157 -503 0
-2157 503 0
2158 -504 0
-2158 504 0
2159 -505 0
-2159 505 0
2160 -506 0
-2160 506 0
2161 -507 0
-2161 507 0
2162 -508 0
-2162 508 0
2163 -511 0
-2163 511 0
2164 -512 0
-2164 512 0
2165 -513 0
-2165 513 0
2166 -514 0
-2166 514 0
2167 -515 0
-2167 515 0
2168 -516 0
-2168 516 0
2169 -521 0
-2169 521 0
2170 -522 0
-2170 522 0
2171 -523 0
-2171 523 0
2172 -524 0
-2172 524 0
2173 -527 0
-2173 527 0
2174 -528 0
-2174 528 0
2175 -529 0
-2175 529 0
2176 -530 0
-2176 530 0
2177 -531 0
-2177 531 0
2178 -532 0
-2178 532 0
2179 -535 0
-2179 535 0
2180 -536 0
-2180 536 0
2181 -537 0
-2181 537 0
2182 -538 0
-2182 538 0
2183 -539 0
-2183 539 0
2184 -540 0
-2184 540 0
2185 -543 0
-2185 543 0
2186 -544 0
-2186 544 0
2187 -545 0
-2187 545 0
2188 -546 0
-2188 546 0
2189 -547 0
-2189 547 0
2190 -548 0
-2190 548 0
2191 -549 0
-2191 549 0
2192 -550 0
-2192 550 0
2193 -553 0
-2193 553 0
2194 -554 0
-2194 554 0
2195 -555 0
-2195 555 0
2196 -556 0
-2196 556 0
2197 -557 0
-2197 557 0
2198 -558 0
-2198 558 0
2199 -559 0
-2199 559 0
2200 -560 0
-2200 560 0
2201 -565 0
-2201 565 0
2202 -566 0
-2202 566 0
2203 -567 0
-2203 567 0
2204 -568 0
-2204 568 0
2205 -569 0
-2205 569 0
2206 -574 0
-2206 574 0
2207 -575 0
-2207 575 0
2208 -576 0
-2208 576 0
2209 -577 0
-2209 577 0
2210 -578 0
-2210 578 0
2211 -581 0
-2211 581 0
2212 -582 0
-2212 582 0
2213 -583 0
-2213 583 0
2214 -584 0
-2214 584 0
2215 -585 0
-2215 585 0
2216 -586 0
-2216 586 0
2217 -587 0
-2217 587 0
2218 -588 0
-2218 588 0
2219 -591 0
-2219 591 0
2220 -592 0
-2220 592 0
2221 -593 0
-2221 593 0
2222 -594 0
-2222 594 0
2223 -595 0
-2223 595 0
2224 -596 0
-2224 596 0
2225 -597 0
-2225 597 0
2226 -598 0
-2226 598 0
2227 -601 0
-2227 601 0
2228 -602 0
-2228 602 0
2229 -603 0
-2229 603 0
2230 -604 0
-2230 604 0
2231 -605 0
-2231 605 0
2232 -606 0
-2232 606 0
2233 -607 0
-2233 607 0
2234 -608 0
-2234 608 0
2235 -612 0
-2235 612 0
2236 -613 0
-2236 613 0
2237 -614 0
-2237 614 0
2238 -616 0
-2238 616 0
2239 -617 0
-2239 617 0
2240 -618 0
-2240 618 0
2241 -619 0
-2241 619 0
2242 -622 0
-2242 622 0
2243 -623 0
-2243 623 0
2244 -624 0
-2244 624 0
2245 -625 0
-2245 625 0
2246 -626 0
-2246 626 0
2247 -627 0
-2247 627 0
2248 -628 0
-2248 628 0
2249 -629 0
-2249 629 0
2250 -630 0
-2250 630 0
2251 -631 0
-2251 631 0
2252 -635 0
-2252 635 0
2253 -636 0
-2253 636 0
2254 -637 0
-2254 637 0
2255 -638 0
-2255 638 0
2256 -639 0
-2256 639 0
2257 -642 0
-2257 642 0
2258 -643 0
-2258 643 0
2259 -644 0
-2259 644 0
2260 -645 0
-2260 645 0
2261 -646 0
-2261 646 0
2262 -647 0
-2262 647 0
2263 -648 0
-2263 648 0
2264 -649 0
-2264 649 0
2265 -650 0
-2265 650 0
2266 -651 0
-2266 651 0
2267 -654 0
-2267 654 0
2268 -655 0
-2268 655 0
2269 -656 0
-2269 656 0
2270 -658 0
-2270 658 0
2271 -659 0
-2271 659 0
2272 -660 0
-2272 660 0
2273 -661 0
-2273 661 0
2274 -662 0
-2274 662 0
2275 -663 0
-2275 663 0
2276 -666 0
-2276 666 0
2277 -667 0
-2277 667 0
2278 -668 0
-2278 668 0
2279 -669 0
-2279 669 0
2280 -670 0
-2280 670 0
2281 -671 0
-2281 671 0
2282 -672 0
-2282 672 0
2283 -673 0
-2283 673 0
2284 -674 0
-2284 674 0
2285 -675 0
-2285 675 0
2286 -676 0
-2286 676 0
2287 -677 0
-2287 677 0
2288 -682 0
-2288 682 0
2289 -683 0
-2289 683 0
2290 -684 0
-2290 684 0
2291 -685 0
-2291 685 0
2292 -686 0
-2292 686 0
2293 -687 0
-2293 687 0
2294 -688 0
-2294 688 0
2295 -689 0
-2295 689 0
2296 -690 0
-2296 690 0
2297 -695 0
-2297 695 0
2298 -696 0
-2298 696 0
2299 -697 0
-2299 697 0
2300 -698 0
-2300 698 0
2301 -699 0
-2301 699 0
2302 -700 0
-2302 700 0
2303 -701 0
-2303 701 0
2304 -702 0
-2304 702 0
2305 -703 0
-2305 703 0
2306 -704 0
-2306 704 0
2307 -705 0
-2307 705 0
2308 -710 0
-2308 710 0
2309 -711 0
-2309 711 0
2310 -712 0
-2310 712 0
2311 -713 0
-2311 713 0
2312 -715 0
-2312 715 0
2313 -717 0
-2313 717 0
2314 -718 0
-2314 718 0
2315 -719 0
-2315 719 0
2316 -720 0
-2316 720 0
2317 -721 0
-2317 721 0
2318 -722 0
-2318 722 0
2319 -723 0
-2319 723 0
2320 -724 0
-2320 724 0
2048 -727 0
-2048 727 0
727 0
-727 443 726 0
-443 440 -442 0
-440 437 -439 0
-437 432 -436 0
-432 429 -431 0
-429 425 -428 0
-425 422 -424 0
-422 418 -421 0
-418 415 -417 0
-415 411 -414 0
-411 407 -410 0
-407 404 -406 0
-404 400 -403 0
-400 396 -399 0
-396 390 -395 0
-390 386 -389 0
-386 383 -385 0
-383 380 -382 0
-380 376 -379 0
-376 372 -375 0
-372 369 -371 0
-369 366 -368 0
-366 362 -365 0
-362 358 -361 0
-358 354 -357 0
-354 350 -353 0
-350 347 -349 0
-347 343 -346 0
-343 340 -342 0
-340 336 -339 0
-336 333 -335 0
-333 329 -332 0
-329 325 -328 0
-325 322 -324 0
-322 318 -321 0
-318 315 -317 0
-315 311 -314 0
-311 307 -310 0
-307 304 -306 0
-304 300 -303 0
-300 296 -299 0
-296 292 -295 0
-292 288 -291 0
-288 284 -287 0
-284 281 -283 0
-281 277 -280 0
-277 274 -276 0
-274 270 -273 0
-270 266 -269 0
-266 263 -265 0
-263 259 -262 0
-259 255 -258 0
-255 252 -254 0
-252 248 -251 0
-248 244 -247 0
-244 241 -243 0
-241 236 -240 0
-236 233 -235 0
-233 230 -232 0
-230 226 -229 0
-226 223 -225 0
-223 219 -222 0
-219 216 -218 0
-216 212 -215 0
-212 209 -211 0
-209 205 -208 0
-205 200 -204 0
-200 196 -199 0
-196 192 -195 0
-192 187 -191 0
-187 183 -186 0
-183 179 -182 0
-179 174 -178 0
-174 170 -173 0
-170 166 -169 0
-166 162 -165 0
-162 157 -161 0
-157 153 -156 0
-153 149 -152 0
-149 145 -148 0
-145 140 -144 0
-140 136 -139 0
-136 132 -135 0
-132 128 -131 0
-128 124 -127 0
-124 119 -123 0
-119 115 -118 0
-115 111 -114 0
-111 106 -110 0
-106 102 -105 0
-102 98 -101 0
-98 94 -97 0
-94 89 -93 0
-89 85 -88 0
-85 81 -84 0
-81 77 -80 0
-77 73 -76 0
-73 68 -72 0
-68 64 -67 0
-64 60 -63 0
-60 56 -59 0
-56 51 -55 0
-51 47 -50 0
-47 43 -46 0
-43 38 -42 0
-38 34 -37 0
-34 30 -33 0
-30 25 -29 0
-25 21 -24 0
-21 17 -20 0
-17 12 -16 0
-12 8 -11 0
-8 -3 -7 0
1 -2 3 0
-1 2 3 0
4 6 7 0
-4 -6 7 0
-1 5 6 0
-6 1 0
-6 -5 0
9 -10 11 0
-9 10 11 0
13 15 16 0
-13 -15 16 0
-9 14 15 0
-15 9 0
-15 -14 0
18 -19 20 0
-18 19 20 0
22 23 24 0
-22 -23 24 0
-4 -13 23 0
-23 4 0
-23 13 0
26 28 29 0
-26 -28 29 0
-18 27 28 0
-28 18 0
-28 -27 0
31 32 33 0
-31 -32 33 0
-13 -26 32 0
-32 13 0
-32 26 0
35 -36 37 0
-35 36 37 0
39 41 42 0
-39 -41 42 0
-35 40 41 0
-41 35 0
-41 -40 0
44 45 46 0
-44 -45 46 0
-26 -39 45 0
-45 26 0
-45 39 0
48 -49 50 0
-48 49 50 0
52 54 55 0
-52 -54 55 0
-48 53 54 0
-54 48 0
-54 -53 0
57 58 59 0
-57 -58 59 0
-39 -52 58 0
-58 39 0
-58 52 0
61 -62 63 0
-61 62 63 0
65 66 67 0
-65 -66 67 0
-22 -44 66 0
-66 22 0
-66 44 0
69 71 72 0
-69 -71 72 0
-61 70 71 0
-71 61 0
-71 -70 0
74 75 76 0
-74 -75 76 0
-31 -57 75 0
-75 31 0
-75 57 0
78 -79 80 0
-78 79 80 0
82 83 84 0
-82 -83 84 0
-52 -69 83 0
-83 52 0
-83 69 0
86 87 88 0
-86 -87 88 0
-44 -82 87 0
-87 44 0
-87 82 0
90 92 93 0
-90 -92 93 0
-78 91 92 0
-92 78 0
-92 -91 0
95 96 97 0
-95 -96 97 0
-69 -90 96 0
-96 69 0
-96 90 0
99 100 101 0
-99 -100 101 0
-57 -95 100 0
-100 57 0
-100 95 0
103 -104 105 0
-103 104 105 0
107 109 110 0
-107 -109 110 0
-103 108 109 0
-109 103 0
-109 -108 0
112 113 114 0
-112 -113 114 0
-90 -107 113 0
-113 90 0
-113 107 0
116 -117 118 0
-116 117 118 0
120 122 123 0
-120 -122 123 0
-116 121 122 0
-122 116 0
-122 -121 0
125 126 127 0
-125 -126 127 0
-107 -120 126 0
-126 107 0
-126 120 0
129 130 131 0
-129 -130 131 0
-82 -112 130 0
-130 82 0
-130 112 0
133 -134 135 0
-133 134 135 0
137 138 139 0
-137 -138 139 0
-95 -125 138 0
-138 95 0
-138 125 0
141 143 144 0
-141 -143 144 0
-133 142 143 0
-143 133 0
-143 -142 0
146 147 148 0
-146 -147 148 0
-120 -141 147 0
-147 120 0
-147 141 0
150 151 152 0
-150 -151 152 0
-112 -146 151 0
-151 112 0
-151 146 0
154 -155 156 0
-154 155 156 0
158 160 161 0
-158 -160 161 0
-154 159 160 0
-160 154 0
-160 -159 0
163 164 165 0
-163 -164 165 0
-141 -158 164 0
-164 141 0
-164 158 0
167 168 169 0
-167 -168 169 0
-125 -163 168 0
-168 125 0
-168 163 0
171 -172 173 0
-171 172 173 0
175 177 178 0
-175 -177 178 0
-171 176 177 0
-177 171 0
-177 -176 0
180 181 182 0
-180 -181 182 0
-158 -175 181 0
-181 158 0
-181 175 0
184 -185 186 0
-184 185 186 0
188 190 191 0
-188 -190 191 0
-184 189 190 0
-190 184 0
-190 -189 0
193 194 195 0
-193 -194 195 0
-175 -188 194 0
-194 175 0
-194 188 0
197 -198 199 0
-197 198 199 0
201 203 204 0
-201 -203 204 0
-197 202 203 0
-203 197 0
-203 -202 0
206 -207 208 0
-206 207 208 0
210 -2 211 0
-210 2 211 0
213 214 215 0
-213 -214 215 0
-210 5 214 0
-214 210 0
-214 -5 0
217 -10 218 0
-217 10 218 0
220 221 222 0
-220 -221 222 0
-217 14 221 0
-221 217 0
-221 -14 0
224 -19 225 0
-224 19 225 0
227 228 229 0
-227 -228 229 0
-213 -220 228 0
-228 213 0
-228 220 0
231 224 232 0
-231 -224 232 0
234 -27 235 0
-234 27 235 0
237 239 240 0
-237 -239 240 0
-220 -238 239 0
-239 220 0
-239 238 0
242 -36 243 0
-242 36 243 0
245 246 247 0
-245 -246 247 0
-242 40 246 0
-246 242 0
-246 -40 0
249 250 251 0
-249 -250 251 0
-238 -245 250 0
-250 238 0
-250 245 0
253 -49 254 0
-253 49 254 0
256 257 258 0
-256 -257 258 0
-253 53 257 0
-257 253 0
-257 -53 0
260 261 262 0
-260 -261 262 0
-245 -256 261 0
-261 245 0
-261 256 0
264 -62 265 0
-264 62 265 0
267 268 269 0
-267 -268 269 0
-227 -249 268 0
-268 227 0
-268 249 0
271 272 273 0
-271 -272 273 0
-264 70 272 0
-272 264 0
-272 -70 0
275 213 276 0
-275 -213 276 0
278 279 280 0
-278 -279 280 0
-237 -260 279 0
-279 237 0
-279 260 0
282 -79 283 0
-282 79 283 0
285 286 287 0
-285 -286 287 0
-256 -271 286 0
-286 256 0
-286 271 0
289 290 291 0
-289 -290 291 0
-249 -285 290 0
-290 249 0
-290 285 0
293 294 295 0
-293 -294 295 0
-282 91 294 0
-294 282 0
-294 -91 0
297 298 299 0
-297 -298 299 0
-271 -293 298 0
-298 271 0
-298 293 0
301 302 303 0
-301 -302 303 0
-260 -297 302 0
-302 260 0
-302 297 0
305 -104 306 0
-305 104 306 0
308 309 310 0
-308 -309 310 0
-305 108 309 0
-309 305 0
-309 -108 0
312 313 314 0
-312 -313 314 0
-293 -308 313 0
-313 293 0
-313 308 0
316 -117 317 0
-316 117 317 0
319 320 321 0
-319 -320 321 0
-316 -121 320 0
-320 316 0
-320 121 0
323 227 324 0
-323 -227 324 0
326 327 328 0
-326 -327 328 0
-316 121 327 0
-327 316 0
-327 -121 0
330 331 332 0
-330 -331 332 0
-308 -326 331 0
-331 308 0
-331 326 0
334 213 335 0
-334 -213 335 0
337 338 339 0
-337 -338 339 0
341 237 342 0
-341 -237 342 0
344 345 346 0
-344 -345 346 0
-285 -312 345 0
-345 285 0
-345 312 0
348 -134 349 0
-348 134 349 0
351 352 353 0
-351 -352 353 0
-297 -330 352 0
-352 297 0
-352 330 0
355 356 357 0
-355 -356 357 0
-348 142 356 0
-356 348 0
-356 -142 0
359 360 361 0
-359 -360 361 0
-326 -355 360 0
-360 326 0
-360 355 0
363 364 365 0
-363 -364 365 0
-312 -359 364 0
-364 312 0
-364 359 0
367 -155 368 0
-367 155 368 0
370 330 371 0
-370 -330 371 0
373 374 375 0
-373 -374 375 0
-367 159 374 0
-374 367 0
-374 -159 0
377 378 379 0
-377 -378 379 0
-355 -373 378 0
-378 355 0
-378 373 0
381 377 382 0
-381 -377 382 0
384 -172 385 0
-384 172 385 0
387 388 389 0
-387 -388 389 0
-384 176 388 0
-388 384 0
-388 -176 0
391 394 395 0
-391 -394 395 0
-377 -393 394 0
-387 -392 393 0
-185 -213 392 0
-394 377 0
-394 393 0
-393 387 0
-393 392 0
-392 185 0
-392 213 0
397 398 399 0
-397 -398 399 0
-278 -351 398 0
-398 278 0
-398 351 0
401 402 403 0
-401 -402 403 0
-373 -387 402 0
-402 373 0
-402 387 0
405 -185 406 0
-405 185 406 0
408 409 410 0
-408 -409 410 0
-405 189 409 0
-409 405 0
-409 -189 0
412 413 414 0
-412 -413 414 0
-387 -408 413 0
-413 387 0
-413 408 0
416 -198 417 0
-416 198 417 0
419 420 421 0
-419 -420 421 0
-416 202 420 0
-420 416 0
-420 -202 0
423 419 424 0
-423 -419 424 0
426 427 428 0
-426 -427 428 0
-207 -213 427 0
-427 207 0
-427 213 0
430 -207 431 0
-430 207 431 0
433 435 436 0
-433 -435 436 0
-430 -434 435 0
-435 430 0
-435 434 0
438 227 439 0
-438 -227 439 0
441 213 442 0
-441 -213 442 0
-726 707 0
-726 725 0
-707 692 0
-707 706 0
-692 679 0
-692 691 0
-679 665 0
-679 678 0
-665 653 0
-665 664 0
-653 641 0
-653 652 0
-641 633 0
-641 640 0
-633 621 0
-633 632 0
-621 610 0
-621 620 0
-610 600 0
-610 609 0
-600 590 0
-600 599 0
-590 580 0
-590 589 0
-580 571 0
-580 579 0
-571 562 0
-571 570 0
-562 552 0
-562 561 0
-552 542 0
-552 551 0
-542 534 0
-542 541 0
-534 526 0
-534 533 0
-526 518 0
-526 525 0
-518 510 0
-518 517 0
-510 502 0
-510 509 0
-502 494 0
-502 501 0
-494 486 0
-494 493 0
-486 478 0
-486 485 0
-478 472 0
-478 477 0
-472 466 0
-472 471 0
-466 460 0
-466 465 0
-460 454 0
-460 459 0
-454 450 0
-454 453 0
-450 446 0
-450 449 0
-446 444 0
-446 445 0
-444 -2 2 0
-444 2 -2 0
-445 -2 2 0
-445 2 -2 0
-449 -447 448 0
-449 447 -448 0
-447 210 0
-447 5 0
-448 1 0
-448 5 0
-210 -5 447 0
-1 -5 448 0
-453 -451 452 0
-453 451 -452 0
-451 10 0
-451 213 0
-452 10 0
-452 4 0
-10 -213 451 0
-10 -4 452 0
-459 -456 458 0
-459 456 -458 0
-456 213 0
-456 455 0
-455 217 0
-455 14 0
-458 4 0
-458 457 0
-457 9 0
-457 14 0
-213 -455 456 0
-217 -14 455 0
-4 -457 458 0
-9 -14 457 0
-465 -462 464 0
-465 462 -464 0
-462 220 0
-462 461 0
-461 19 0
-461 213 0
-464 13 0
-464 463 0
-463 19 0
-463 4 0
-220 -461 462 0
-19 -213 461 0
-13 -463 464 0
-19 -4 463 0
-471 -468 470 0
-471 468 -470 0
-468 467 0
-468 227 0
-467 224 0
-467 27 0
-470 469 0
-470 22 0
-469 18 0
-469 27 0
-467 -227 468 0
-224 -27 467 0
-469 -22 470 0
-18 -27 469 0
-477 -474 476 0
-477 474 -476 0
-474 473 0
-474 237 0
-473 36 0
-473 213 0
-476 475 0
-476 31 0
-475 36 0
-475 4 0
-473 -237 474 0
-36 -213 473 0
-475 -31 476 0
-36 -4 475 0
-485 -481 484 0
-485 481 -484 0
-481 227 0
-481 480 0
-480 238 0
-480 479 0
-479 242 0
-479 40 0
-484 22 0
-484 483 0
-483 26 0
-483 482 0
-482 35 0
-482 40 0
-227 -480 481 0
-238 -479 480 0
-242 -40 479 0
-22 -483 484 0
-26 -482 483 0
-35 -40 482 0
-493 -489 492 0
-493 489 -492 0
-489 237 0
-489 488 0
-488 245 0
-488 487 0
-487 49 0
-487 213 0
-492 31 0
-492 491 0
-491 39 0
-491 490 0
-490 49 0
-490 4 0
-237 -488 489 0
-245 -487 488 0
-49 -213 487 0
-31 -491 492 0
-39 -490 491 0
-49 -4 490 0
-501 -497 500 0
-501 497 -500 0
-497 249 0
-497 496 0
-496 495 0
-496 227 0
-495 253 0
-495 53 0
-500 44 0
-500 499 0
-499 498 0
-499 22 0
-498 48 0
-498 53 0
-249 -496 497 0
-495 -227 496 0
-253 -53 495 0
-44 -499 500 0
-498 -22 499 0
-48 -53 498 0
-509 -505 508 0
-509 505 -508 0
-505 260 0
-505 504 0
-504 503 0
-504 237 0
-503 62 0
-503 213 0
-508 57 0
-508 507 0
-507 506 0
-507 31 0
-506 62 0
-506 4 0
-260 -504 505 0
-503 -237 504 0
-62 -213 503 0
-57 -507 508 0
-506 -31 507 0
-62 -4 506 0
-517 -513 516 0
-517 513 -516 0
-513 512 0
-513 267 0
-512 256 0
-512 511 0
-511 264 0
-511 70 0
-516 515 0
-516 65 0
-515 52 0
-515 514 0
-514 61 0
-514 70 0
-512 -267 513 0
-256 -511 512 0
-264 -70 511 0
-515 -65 516 0
-52 -514 515 0
-61 -70 514 0
-525 -521 524 0
-525 521 -524 0
-521 520 0
-521 278 0
-520 271 0
-520 519 0
-524 523 0
-524 74 0
-523 69 0
-523 522 0
-522 79 0
-522 4 0
-520 -278 521 0
-271 -519 520 0
-523 -74 524 0
-69 -522 523 0
-79 -4 522 0
-533 -529 532 0
-533 529 -532 0
-529 528 0
-529 289 0
-528 527 0
-528 227 0
-527 282 0
-527 91 0
-532 531 0
-532 86 0
-531 530 0
-531 22 0
-530 78 0
-530 91 0
-528 -289 529 0
-527 -227 528 0
-282 -91 527 0
-531 -86 532 0
-530 -22 531 0
-78 -91 530 0
-541 -537 540 0
-541 537 -540 0
-537 536 0
-537 301 0
-536 535 0
-536 237 0
-535 104 0
-535 213 0
-540 539 0
-540 99 0
-539 538 0
-539 31 0
-538 104 0
-538 4 0
-536 -301 537 0
-535 -237 536 0
-104 -213 535 0
-539 -99 540 0
-538 -31 539 0
-104 -4 538 0
-551 -546 550 0
-551 546 -550 0
-546 267 0
-546 545 0
-545 285 0
-545 544 0
-544 293 0
-544 543 0
-543 305 0
-543 108 0
-550 65 0
-550 549 0
-549 82 0
-549 548 0
-548 90 0
-548 547 0
-547 103 0
-547 108 0
-267 -545 546 0
-285 -544 545 0
-293 -543 544 0
-305 -108 543 0
-65 -549 550 0
-82 -548 549 0
-90 -547 548 0
-103 -108 547 0
-561 -556 560 0
-561 556 -560 0
-556 278 0
-556 555 0
-555 297 0
-555 554 0
-554 308 0
-554 553 0
-553 117 0
-553 213 0
-560 74 0
-560 559 0
-559 95 0
-559 558 0
-558 107 0
-558 557 0
-557 117 0
-557 4 0
-278 -555 556 0
-297 -554 555 0
-308 -553 554 0
-117 -213 553 0
-74 -559 560 0
-95 -558 559 0
-107 -557 558 0
-117 -4 557 0
-570 -565 569 0
-570 565 -569 0
-565 289 0
-565 564 0
-564 312 0
-564 563 0
-569 86 0
-569 568 0
-568 112 0
-568 567 0
-567 566 0
-567 22 0
-566 116 0
-566 121 0
-289 -564 565 0
-312 -563 564 0
-86 -568 569 0
-112 -567 568 0
-566 -22 567 0
-116 -121 566 0
-579 -574 578 0
-579 574 -578 0
-574 301 0
-574 573 0
-573 330 0
-573 572 0
-578 99 0
-578 577 0
-577 125 0
-577 576 0
-576 575 0
-576 31 0
-575 134 0
-575 4 0
-301 -573 574 0
-330 -572 573 0
-99 -577 578 0
-125 -576 577 0
-575 -31 576 0
-134 -4 575 0
-589 -584 588 0
-589 584 -588 0
-584 344 0
-584 583 0
-583 582 0
-583 267 0
-582 326 0
-582 581 0
-581 348 0
-581 142 0
-588 129 0
-588 587 0
-587 586 0
-587 65 0
-586 120 0
-586 585 0
-585 133 0
-585 142 0
-344 -583 584 0
-582 -267 583 0
-326 -581 582 0
-348 -142 581 0
-129 -587 588 0
-586 -65 587 0
-120 -585 586 0
-133 -142 585 0
-599 -594 598 0
-599 594 -598 0
-594 351 0
-594 593 0
-593 592 0
-593 278 0
-592 355 0
-592 591 0
-591 155 0
-591 213 0
-598 137 0
-598 597 0
-597 596 0
-597 74 0
-596 141 0
-596 595 0
-595 155 0
-595 4 0
-351 -593 594 0
-592 -278 593 0
-355 -591 592 0
-155 -213 591 0
-137 -597 598 0
-596 -74 597 0
-141 -595 596 0
-155 -4 595 0
-609 -604 608 0
-609 604 -608 0
-604 363 0
-604 603 0
-603 602 0
-603 289 0
-602 601 0
-602 227 0
-601 367 0
-601 159 0
-608 150 0
-608 607 0
-607 606 0
-607 86 0
-606 605 0
-606 22 0
-605 154 0
-605 159 0
-363 -603 604 0
-602 -289 603 0
-601 -227 602 0
-367 -159 601 0
-150 -607 608 0
-606 -86 607 0
-605 -22 606 0
-154 -159 605 0
-620 -615 619 0
-620 615 -619 0
-615 611 0
-615 614 0
-614 613 0
-614 301 0
-613 612 0
-613 237 0
-612 172 0
-612 213 0
-619 167 0
-619 618 0
-618 617 0
-618 99 0
-617 616 0
-617 31 0
-616 172 0
-616 4 0
-611 -614 615 0
-613 -301 614 0
-612 -237 613 0
-172 -213 612 0
-167 -618 619 0
-617 -99 618 0
-616 -31 617 0
-172 -4 616 0
-632 -626 631 0
-632 626 -631 0
-626 624 0
-626 625 0
-624 359 0
-624 623 0
-623 373 0
-623 622 0
-622 384 0
-622 176 0
-625 267 0
-625 344 0
-631 629 0
-631 630 0
-629 146 0
-629 628 0
-628 158 0
-628 627 0
-627 171 0
-627 176 0
-630 65 0
-630 129 0
-624 -625 626 0
-359 -623 624 0
-373 -622 623 0
-384 -176 622 0
-267 -344 625 0
-629 -630 631 0
-146 -628 629 0
-158 -627 628 0
-171 -176 627 0
-65 -129 630 0
-640 -634 639 0
-640 634 -639 0
-639 637 0
-639 638 0
-637 163 0
-637 636 0
-636 175 0
-636 635 0
-635 185 0
-635 4 0
-638 74 0
-638 137 0
-637 -638 639 0
-163 -636 637 0
-175 -635 636 0
-185 -4 635 0
-74 -137 638 0
-652 -646 651 0
-652 646 -651 0
-646 644 0
-646 645 0
-644 401 0
-644 643 0
-643 642 0
-643 227 0
-642 405 0
-642 189 0
-645 289 0
-645 363 0
-651 649 0
-651 650 0
-649 180 0
-649 648 0
-648 647 0
-648 22 0
-647 184 0
-647 189 0
-650 86 0
-650 150 0
-644 -645 646 0
-401 -643 644 0
-642 -227 643 0
-405 -189 642 0
-289 -363 645 0
-649 -650 651 0
-180 -648 649 0
-647 -22 648 0
-184 -189 647 0
-86 -150 650 0
-664 -658 663 0
-664 658 -663 0
-658 656 0
-658 -657 0
-656 412 0
-656 655 0
-655 654 0
-655 237 0
-654 198 0
-654 213 0
-301 611 657 0
301 -611 657 0
-301 -611 657 0
-663 661 0
-663 662 0
-661 193 0
-661 660 0
-660 659 0
-660 31 0
-659 198 0
-659 4 0
-662 99 0
-662 167 0
-656 657 658 0
-412 -655 656 0
-654 -237 655 0
-198 -213 654 0
-657 301 611 0
-661 -662 663 0
-193 -660 661 0
-659 -31 660 0
-198 -4 659 0
-99 -167 662 0
-678 -671 677 0
-678 671 -677 0
-671 668 0
-671 670 0
-668 667 0
-668 267 0
-667 408 0
-667 666 0
-666 416 0
-666 202 0
-670 344 0
-670 669 0
-669 359 0
-669 401 0
-677 674 0
-677 676 0
-674 673 0
-674 65 0
-673 188 0
-673 672 0
-672 197 0
-672 202 0
-676 129 0
-676 675 0
-675 146 0
-675 180 0
-668 -670 671 0
-667 -267 668 0
-408 -666 667 0
-416 -202 666 0
-344 -669 670 0
-359 -401 669 0
-674 -676 677 0
-673 -65 674 0
-188 -672 673 0
-197 -202 672 0
-129 -675 676 0
-146 -180 675 0
-691 -684 690 0
-691 684 -690 0
-684 681 0
-684 683 0
-681 680 0
-681 278 0
-683 351 0
-683 682 0
-682 377 0
-682 412 0
-690 687 0
-690 689 0
-687 686 0
-687 74 0
-686 201 0
-686 685 0
-685 207 0
-685 4 0
-689 137 0
-689 688 0
-688 163 0
-688 193 0
-681 -683 684 0
-680 -278 681 0
-351 -682 683 0
-377 -412 682 0
-687 -689 690 0
-686 -74 687 0
-201 -685 686 0
-207 -4 685 0
-137 -688 689 0
-163 -193 688 0
-706 -698 705 0
-706 698 -705 0
-698 694 0
-698 697 0
-694 693 0
-694 289 0
-697 363 0
-697 696 0
-696 401 0
-696 695 0
-695 408 0
-695 419 0
-705 701 0
-705 704 0
-701 700 0
-701 86 0
-700 699 0
-700 22 0
-699 206 0
-699 434 0
-704 150 0
-704 703 0
-703 180 0
-703 702 0
-702 188 0
-702 201 0
-694 -697 698 0
-693 -289 694 0
-363 -696 697 0
-401 -695 696 0
-408 -419 695 0
-701 -704 705 0
-700 -86 701 0
-699 -22 700 0
-206 -434 699 0
-150 -703 704 0
-180 -702 703 0
-188 -201 702 0
-725 -715 724 0
-725 715 -724 0
-715 710 0
-715 714 0
-710 709 0
-710 301 0
-709 708 0
-709 237 0
-714 611 0
-714 713 0
-713 412 0
-713 712 0
-712 419 0
-712 711 0
-711 430 0
-711 -434 0
-724 719 0
-724 723 0
-719 718 0
-719 99 0
-718 717 0
-718 31 0
-717 716 0
-717 4 0
-723 167 0
-723 722 0
-722 193 0
-722 721 0
-721 201 0
-721 720 0
-720 206 0
-720 -434 0
-710 -714 715 0
-709 -301 710 0
-708 -237 709 0
-611 -713 714 0
-412 -712 713 0
-419 -711 712 0
-430 434 711 0
-719 -723 724 0
-718 -99 719 0
-717 -31 718 0
-716 -4 717 0
-167 -722 723 0
-193 -721 722 0
-201 -720 721 0
-206 434 720 0
2048 0
1 -2049 0
-5 -2049 0
-1 5 2049 0
9 -2050 0
-14 -2050 0
-9 14 2050 0
13 -2051 0
4 -2051 0
-13 -4 2051 0
18 -2052 0
-27 -2052 0
-18 27 2052 0
26 -2053 0
13 -2053 0
-26 -13 2053 0
35 -2054 0
-40 -2054 0
-35 40 2054 0
39 -2055 0
26 -2055 0
-39 -26 2055 0
48 -2056 0
-53 -2056 0
-48 53 2056 0
52 -2057 0
39 -2057 0
-52 -39 2057 0
44 -2058 0
22 -2058 0
-44 -22 2058 0
61 -2059 0
-70 -2059 0
-61 70 2059 0
57 -2060 0
31 -2060 0
-57 -31 2060 0
69 -2061 0
52 -2061 0
-69 -52 2061 0
44 -2062 0
82 -2062 0
-44 -82 2062 0
78 -2063 0
-91 -2063 0
-78 91 2063 0
69 -2064 0
90 -2064 0
-69 -90 2064 0
57 -2065 0
95 -2065 0
-57 -95 2065 0
-108 -2066 0
103 -2066 0
108 -103 2066 0
107 -2067 0
90 -2067 0
-107 -90 2067 0
-121 -2068 0
116 -2068 0
121 -116 2068 0
107 -2069 0
120 -2069 0
-107 -120 2069 0
112 -2070 0
82 -2070 0
-112 -82 2070 0
95 -2071 0
125 -2071 0
-95 -125 2071 0
-142 -2072 0
133 -2072 0
142 -133 2072 0
141 -2073 0
120 -2073 0
-141 -120 2073 0
112 -2074 0
146 -2074 0
-112 -146 2074 0
-159 -2075 0
154 -2075 0
159 -154 2075 0
158 -2076 0
141 -2076 0
-158 -141 2076 0
125 -2077 0
163 -2077 0
-125 -163 2077 0
-176 -2078 0
171 -2078 0
176 -171 2078 0
158 -2079 0
175 -2079 0
-158 -175 2079 0
-189 -2080 0
184 -2080 0
189 -184 2080 0
188 -2081 0
175 -2081 0
-188 -175 2081 0
-202 -2082 0
197 -2082 0
202 -197 2082 0
-5 -2083 0
210 -2083 0
5 -210 2083 0
-14 -2084 0
217 -2084 0
14 -217 2084 0
220 -2085 0
213 -2085 0
-220 -213 2085 0
-40 -2086 0
242 -2086 0
40 -242 2086 0
253 -2087 0
-53 -2087 0
-253 53 2087 0
245 -2088 0
256 -2088 0
-245 -256 2088 0
249 -2089 0
227 -2089 0
-249 -227 2089 0
264 -2090 0
-70 -2090 0
-264 70 2090 0
260 -2091 0
237 -2091 0
-260 -237 2091 0
271 -2092 0
256 -2092 0
-271 -256 2092 0
249 -2093 0
285 -2093 0
-249 -285 2093 0
-91 -2094 0
282 -2094 0
91 -282 2094 0
271 -2095 0
293 -2095 0
-271 -293 2095 0
260 -2096 0
297 -2096 0
-260 -297 2096 0
-108 -2097 0
305 -2097 0
108 -305 2097 0
293 -2098 0
308 -2098 0
-293 -308 2098 0
316 -2099 0
121 -2099 0
-316 -121 2099 0
316 -2100 0
-121 -2100 0
-316 121 2100 0
326 -2101 0
308 -2101 0
-326 -308 2101 0
312 -2102 0
285 -2102 0
-312 -285 2102 0
330 -2103 0
297 -2103 0
-330 -297 2103 0
348 -2104 0
-142 -2104 0
-348 142 2104 0
326 -2105 0
355 -2105 0
-326 -355 2105 0
359 -2106 0
312 -2106 0
-359 -312 2106 0
367 -2107 0
-159 -2107 0
-367 159 2107 0
355 -2108 0
373 -2108 0
-355 -373 2108 0
-176 -2109 0
384 -2109 0
176 -384 2109 0
185 -2110 0
213 -2110 0
-185 -213 2110 0
387 -2111 0
392 -2111 0
-387 -392 2111 0
377 -2112 0
393 -2112 0
-377 -393 2112 0
351 -2113 0
278 -2113 0
-351 -278 2113 0
373 -2114 0
387 -2114 0
-373 -387 2114 0
405 -2115 0
-189 -2115 0
-405 189 2115 0
408 -2116 0
387 -2116 0
-408 -387 2116 0
416 -2117 0
-202 -2117 0
-416 202 2117 0
207 -2118 0
213 -2118 0
-207 -213 2118 0
430 -2119 0
434 -2119 0
-430 -434 2119 0
5 -2120 0
210 -2120 0
-5 -210 2120 0
1 -2121 0
5 -2121 0
-1 -5 2121 0
10 -2122 0
213 -2122 0
-10 -213 2122 0
4 -2123 0
10 -2123 0
-4 -10 2123 0
14 -2124 0
217 -2124 0
-14 -217 2124 0
213 -2125 0
455 -2125 0
-213 -455 2125 0
9 -2126 0
14 -2126 0
-9 -14 2126 0
4 -2127 0
457 -2127 0
-4 -457 2127 0
19 -2128 0
213 -2128 0
-19 -213 2128 0
220 -2129 0
461 -2129 0
-220 -461 2129 0
4 -2130 0
19 -2130 0
-4 -19 2130 0
13 -2131 0
463 -2131 0
-13 -463 2131 0
27 -2132 0
224 -2132 0
-27 -224 2132 0
227 -2133 0
467 -2133 0
-227 -467 2133 0
18 -2134 0
27 -2134 0
-18 -27 2134 0
22 -2135 0
469 -2135 0
-22 -469 2135 0
36 -2136 0
213 -2136 0
-36 -213 2136 0
237 -2137 0
473 -2137 0
-237 -473 2137 0
4 -2138 0
36 -2138 0
-4 -36 2138 0
31 -2139 0
475 -2139 0
-31 -475 2139 0
40 -2140 0
242 -2140 0
-40 -242 2140 0
227 -2141 0
480 -2141 0
-227 -480 2141 0
35 -2142 0
40 -2142 0
-35 -40 2142 0
26 -2143 0
482 -2143 0
-26 -482 2143 0
22 -2144 0
483 -2144 0
-22 -483 2144 0
49 -2145 0
213 -2145 0
-49 -213 2145 0
245 -2146 0
487 -2146 0
-245 -487 2146 0
237 -2147 0
488 -2147 0
-237 -488 2147 0
4 -2148 0
49 -2148 0
-4 -49 2148 0
39 -2149 0
490 -2149 0
-39 -490 2149 0
31 -2150 0
491 -2150 0
-31 -491 2150 0
253 -2151 0
53 -2151 0
-253 -53 2151 0
227 -2152 0
495 -2152 0
-227 -495 2152 0
249 -2153 0
496 -2153 0
-249 -496 2153 0
48 -2154 0
53 -2154 0
-48 -53 2154 0
22 -2155 0
498 -2155 0
-22 -498 2155 0
44 -2156 0
499 -2156 0
-44 -499 2156 0
62 -2157 0
213 -2157 0
-62 -213 2157 0
237 -2158 0
503 -2158 0
-237 -503 2158 0
260 -2159 0
504 -2159 0
-260 -504 2159 0
62 -2160 0
4 -2160 0
-62 -4 2160 0
31 -2161 0
506 -2161 0
-31 -506 2161 0
57 -2162 0
507 -2162 0
-57 -507 2162 0
264 -2163 0
70 -2163 0
-264 -70 2163 0
256 -2164 0
511 -2164 0
-256 -511 2164 0
267 -2165 0
512 -2165 0
-267 -512 2165 0
61 -2166 0
70 -2166 0
-61 -70 2166 0
52 -2167 0
514 -2167 0
-52 -514 2167 0
65 -2168 0
515 -2168 0
-65 -515 2168 0
278 -2169 0
520 -2169 0
-278 -520 2169 0
79 -2170 0
4 -2170 0
-79 -4 2170 0
69 -2171 0
522 -2171 0
-69 -522 2171 0
74 -2172 0
523 -2172 0
-74 -523 2172 0
91 -2173 0
282 -2173 0
-91 -282 2173 0
227 -2174 0
527 -2174 0
-227 -527 2174 0
289 -2175 0
528 -2175 0
-289 -528 2175 0
78 -2176 0
91 -2176 0
-78 -91 2176 0
22 -2177 0
530 -2177 0
-22 -530 2177 0
86 -2178 0
531 -2178 0
-86 -531 2178 0
104 -2179 0
213 -2179 0
-104 -213 2179 0
237 -2180 0
535 -2180 0
-237 -535 2180 0
301 -2181 0
536 -2181 0
-301 -536 2181 0
104 -2182 0
4 -2182 0
-104 -4 2182 0
31 -2183 0
538 -2183 0
-31 -538 2183 0
99 -2184 0
539 -2184 0
-99 -539 2184 0
108 -2185 0
305 -2185 0
-108 -305 2185 0
293 -2186 0
543 -2186 0
-293 -543 2186 0
285 -2187 0
544 -2187 0
-285 -544 2187 0
267 -2188 0
545 -2188 0
-267 -545 2188 0
108 -2189 0
103 -2189 0
-108 -103 2189 0
90 -2190 0
547 -2190 0
-90 -547 2190 0
82 -2191 0
548 -2191 0
-82 -548 2191 0
65 -2192 0
549 -2192 0
-65 -549 2192 0
117 -2193 0
213 -2193 0
-117 -213 2193 0
308 -2194 0
553 -2194 0
-308 -553 2194 0
297 -2195 0
554 -2195 0
-297 -554 2195 0
278 -2196 0
555 -2196 0
-278 -555 2196 0
117 -2197 0
4 -2197 0
-117 -4 2197 0
107 -2198 0
557 -2198 0
-107 -557 2198 0
95 -2199 0
558 -2199 0
-95 -558 2199 0
74 -2200 0
559 -2200 0
-74 -559 2200 0
289 -2201 0
564 -2201 0
-289 -564 2201 0
121 -2202 0
116 -2202 0
-121 -116 2202 0
22 -2203 0
566 -2203 0
-22 -566 2203 0
112 -2204 0
567 -2204 0
-112 -567 2204 0
86 -2205 0
568 -2205 0
-86 -568 2205 0
301 -2206 0
573 -2206 0
-301 -573 2206 0
134 -2207 0
4 -2207 0
-134 -4 2207 0
31 -2208 0
575 -2208 0
-31 -575 2208 0
125 -2209 0
576 -2209 0
-125 -576 2209 0
99 -2210 0
577 -2210 0
-99 -577 2210 0
348 -2211 0
142 -2211 0
-348 -142 2211 0
326 -2212 0
581 -2212 0
-326 -581 2212 0
267 -2213 0
582 -2213 0
-267 -582 2213 0
344 -2214 0
583 -2214 0
-344 -583 2214 0
142 -2215 0
133 -2215 0
-142 -133 2215 0
120 -2216 0
585 -2216 0
-120 -585 2216 0
65 -2217 0
586 -2217 0
-65 -586 2217 0
129 -2218 0
587 -2218 0
-129 -587 2218 0
155 -2219 0
213 -2219 0
-155 -213 2219 0
355 -2220 0
591 -2220 0
-355 -591 2220 0
278 -2221 0
592 -2221 0
-278 -592 2221 0
351 -2222 0
593 -2222 0
-351 -593 2222 0
155 -2223 0
4 -2223 0
-155 -4 2223 0
141 -2224 0
595 -2224 0
-141 -595 2224 0
74 -2225 0
596 -2225 0
-74 -596 2225 0
137 -2226 0
597 -2226 0
-137 -597 2226 0
367 -2227 0
159 -2227 0
-367 -159 2227 0
227 -2228 0
601 -2228 0
-227 -601 2228 0
289 -2229 0
602 -2229 0
-289 -602 2229 0
363 -2230 0
603 -2230 0
-363 -603 2230 0
159 -2231 0
154 -2231 0
-159 -154 2231 0
22 -2232 0
605 -2232 0
-22 -605 2232 0
86 -2233 0
606 -2233 0
-86 -606 2233 0
150 -2234 0
607 -2234 0
-150 -607 2234 0
172 -2235 0
213 -2235 0
-172 -213 2235 0
237 -2236 0
612 -2236 0
-237 -612 2236 0
301 -2237 0
613 -2237 0
-301 -613 2237 0
172 -2238 0
4 -2238 0
-172 -4 2238 0
31 -2239 0
616 -2239 0
-31 -616 2239 0
99 -2240 0
617 -2240 0
-99 -617 2240 0
167 -2241 0
618 -2241 0
-167 -618 2241 0
176 -2242 0
384 -2242 0
-176 -384 2242 0
373 -2243 0
622 -2243 0
-373 -622 2243 0
359 -2244 0
623 -2244 0
-359 -623 2244 0
344 -2245 0
267 -2245 0
-344 -267 2245 0
624 -2246 0
625 -2246 0
-624 -625 2246 0
176 -2247 0
171 -2247 0
-176 -171 2247 0
158 -2248 0
627 -2248 0
-158 -627 2248 0
146 -2249 0
628 -2249 0
-146 -628 2249 0
65 -2250 0
129 -2250 0
-65 -129 2250 0
629 -2251 0
630 -2251 0
-629 -630 2251 0
185 -2252 0
4 -2252 0
-185 -4 2252 0
175 -2253 0
635 -2253 0
-175 -635 2253 0
163 -2254 0
636 -2254 0
-163 -636 2254 0
74 -2255 0
137 -2255 0
-74 -137 2255 0
637 -2256 0
638 -2256 0
-637 -638 2256 0
405 -2257 0
189 -2257 0
-405 -189 2257 0
227 -2258 0
642 -2258 0
-227 -642 2258 0
401 -2259 0
643 -2259 0
-401 -643 2259 0
363 -2260 0
289 -2260 0
-363 -289 2260 0
644 -2261 0
645 -2261 0
-644 -645 2261 0
189 -2262 0
184 -2262 0
-189 -184 2262 0
22 -2263 0
647 -2263 0
-22 -647 2263 0
180 -2264 0
648 -2264 0
-180 -648 2264 0
86 -2265 0
150 -2265 0
-86 -150 2265 0
649 -2266 0
650 -2266 0
-649 -650 2266 0
198 -2267 0
213 -2267 0
-198 -213 2267 0
237 -2268 0
654 -2268 0
-237 -654 2268 0
412 -2269 0
655 -2269 0
-412 -655 2269 0
656 -2270 0
-657 -2270 0
-656 657 2270 0
198 -2271 0
4 -2271 0
-198 -4 2271 0
31 -2272 0
659 -2272 0
-31 -659 2272 0
193 -2273 0
660 -2273 0
-193 -660 2273 0
99 -2274 0
167 -2274 0
-99 -167 2274 0
661 -2275 0
662 -2275 0
-661 -662 2275 0
416 -2276 0
202 -2276 0
-416 -202 2276 0
408 -2277 0
666 -2277 0
-408 -666 2277 0
267 -2278 0
667 -2278 0
-267 -667 2278 0
401 -2279 0
359 -2279 0
-401 -359 2279 0
344 -2280 0
669 -2280 0
-344 -669 2280 0
668 -2281 0
670 -2281 0
-668 -670 2281 0
202 -2282 0
197 -2282 0
-202 -197 2282 0
188 -2283 0
672 -2283 0
-188 -672 2283 0
65 -2284 0
673 -2284 0
-65 -673 2284 0
180 -2285 0
146 -2285 0
-180 -146 2285 0
129 -2286 0
675 -2286 0
-129 -675 2286 0
674 -2287 0
676 -2287 0
-674 -676 2287 0
377 -2288 0
412 -2288 0
-377 -412 2288 0
351 -2289 0
682 -2289 0
-351 -682 2289 0
681 -2290 0
683 -2290 0
-681 -683 2290 0
207 -2291 0
4 -2291 0
-207 -4 2291 0
201 -2292 0
685 -2292 0
-201 -685 2292 0
74 -2293 0
686 -2293 0
-74 -686 2293 0
193 -2294 0
163 -2294 0
-193 -163 2294 0
137 -2295 0
688 -2295 0
-137 -688 2295 0
687 -2296 0
689 -2296 0
-687 -689 2296 0
419 -2297 0
408 -2297 0
-419 -408 2297 0
401 -2298 0
695 -2298 0
-401 -695 2298 0
363 -2299 0
696 -2299 0
-363 -696 2299 0
694 -2300 0
697 -2300 0
-694 -697 2300 0
434 -2301 0
206 -2301 0
-434 -206 2301 0
22 -2302 0
699 -2302 0
-22 -699 2302 0
86 -2303 0
700 -2303 0
-86 -700 2303 0
201 -2304 0
188 -2304 0
-201 -188 2304 0
180 -2305 0
702 -2305 0
-180 -702 2305 0
150 -2306 0
703 -2306 0
-150 -703 2306 0
701 -2307 0
704 -2307 0
-701 -704 2307 0
301 -2308 0
709 -2308 0
-301 -709 2308 0
430 -2309 0
-434 -2309 0
-430 434 2309 0
419 -2310 0
711 -2310 0
-419 -711 2310 0
412 -2311 0
712 -2311 0
-412 -712 2311 0
710 -2312 0
714 -2312 0
-710 -714 2312 0
4 -2313 0
716 -2313 0
-4 -716 2313 0
31 -2314 0
717 -2314 0
-31 -717 2314 0
99 -2315 0
718 -2315 0
-99 -718 2315 0
-434 -2316 0
206 -2316 0
434 -206 2316 0
201 -2317 0
720 -2317 0
-201 -720 2317 0
193 -2318 0
721 -2318 0
-193 -721 2318 0
167 -2319 0
722 -2319 0
-167 -722 2319 0
719 -2320 0
723 -2320 0
-719 -723 2320 0
